sat
(:added-eqs                   1821293
 :arith-eq-adapter            45654
 :arith-assume-eqs            1974
 :arith-bound-propagations-lp 2474626
 :arith-branch                10
 :arith-conflicts             984
 :arith-cube-calls            5
 :arith-dio-calls             10
 :arith-diseq                 2495833
 :arith-fixed-eqs             224780
 :arith-gcd-calls             32
 :arith-gomory-cuts           21
 :arith-hnf-calls             2
 :arith-lower                 2579161
 :arith-make-feasible         1059111
 :arith-max-columns           9161
 :arith-max-rows              7612
 :arith-offset-eqs            115620
 :arith-patches               32
 :arith-patches-success       11
 :arith-upper                 2813326
 :binary-propagations         3288640
 :conflicts                   1275
 :decisions                   1336376
 :del-clause                  107533
 :elim-unconstrained          77
 :final-checks                1009
 :interface-eqs               987
 :max-memory                  191.88
 :memory                      51.54
 :minimized-lits              165
 :mk-bool-var                 152856
 :mk-clause                   122534
 :mk-clause-binary            70026
 :num-allocs                  171464867966.00
 :num-checks                  1
 :propagations                3963498
 :restarts                    11
 :rlimit-count                74252990
 :solve-eqs-elim-vars         195
 :solve-eqs-steps             22928
 :time                        128.30
 :total-time                  128.44)
